80 8
9 14
60 70
1 101
3 90
10 167
12 44
37 56
19 60
22 132
70 67
47 35
30 31
29 103
15 79
74 41
85 2
21 100
18 125
51 40
97 7
6 41
27 38
71 38
17 20
27 22
21 91
21 38
93 31
16 27
37 119
21 100
48 18
54 107
32 52
47 96
17 5
20 50
3 190
63 43
12 7
7 194
19 44
20 113
35 50
20 167
28 141
3 171
53 67
13 7
